(set-logic ALL)
(set-option :produce-models true)
(declare-sort BoundSet 0)
(declare-sort UnboundSet 0)
(set-option :finite-model-find true)
(declare-fun IsInWhiteShirt (BoundSet) Bool)
(declare-fun SpeaksIntoMicrophone (BoundSet) Bool)
(declare-fun IsMakingASpeech (BoundSet) Bool)
(declare-fun IsInFrontOfCrowd (BoundSet) Bool)
(assert (not (=> (and (exists ((a BoundSet)) (and (IsInWhiteShirt a) (SpeaksIntoMicrophone a))) (and (forall ((f BoundSet)) (forall ((g BoundSet)) (=> (IsInWhiteShirt f) (IsMakingASpeech g)))) (and (forall ((i BoundSet)) (forall ((h BoundSet)) (=> (IsMakingASpeech h) (IsInWhiteShirt i)))) (and (forall ((j BoundSet)) (forall ((k BoundSet)) (=> (SpeaksIntoMicrophone j) (IsMakingASpeech k)))) (forall ((l BoundSet)) (forall ((m BoundSet)) (=> (IsMakingASpeech l) (SpeaksIntoMicrophone m)))))))) (exists ((e BoundSet)) (exists ((d BoundSet)) (and (IsMakingASpeech d) (IsInFrontOfCrowd e)))))))
(check-sat)
(get-model)